50
    78    92    85    47    60     3    48    89    56    84    83    65    97    12    65    60    30     4    39    50    20    19    13   100    45    54    61    66    99    48    23    95    94    83     5    26    55    77    78    85    22    93    78    93    55    31     9    58    25    34
     4     1     9     3     9     7     5    10     2     4     2     4     7     5     4     1     1     3    10    10     7     3     3     9    10     4     1     3     2     3     7     5    10     5     6     4     5     3     4     6     1     4     4     5    10     6     1     3     6     9
  2098  2329  2563  2376  1894  2698  2610  2515  2780  2188  2239  1889  2174  2085  1743  2396  2695  2695  2245  1874  1889  2617  2388  2006  2569  1911  2269  2298  2546  2479  2367  2409  2742  2320  1895  1702  2484  2605  2188  2688  2055  1917  1715  2772  2443  2223  1694  2164  2314  2000
